% seed = 8151044

mint = 51;
% maxt = 112;

nActs = 22;
dur = [0,3,5,7,1,10,10,5,1,2,9,8,8,5,5,8,5,3,10,4,3,0];

nSkills = 4;
sreq = [| 0,0,0,0,
	| 1,2,3,2,
	| 2,3,1,3,
	| 3,1,3,2,
	| 2,2,2,3,
	| 3,1,2,1,
	| 1,3,2,2,
	| 1,3,3,2,
	| 3,2,1,2,
	| 1,3,2,2,
	| 2,2,3,1,
	| 1,2,1,2,
	| 1,1,1,1,
	| 2,1,2,3,
	| 1,2,2,3,
	| 2,3,2,2,
	| 3,3,1,2,
	| 2,3,3,1,
	| 2,2,3,1,
	| 2,3,1,3,
	| 1,1,3,2,
	| 0,0,0,0, |];

nResources = 25;
mastery = [| true,true,false,true,
	| true,false,true,true,
	| false,true,false,false,
	| true,false,true,true,
	| true,true,false,true,
	| true,false,false,true,
	| true,false,false,false,
	| true,true,true,false,
	| false,false,true,false,
	| false,false,false,true,
	| true,false,false,false,
	| false,false,true,false,
	| true,true,true,false,
	| true,true,true,false,
	| true,false,true,true,
	| false,false,true,false,
	| false,false,true,true,
	| true,true,true,false,
	| false,false,true,true,
	| false,true,true,false,
	| false,false,true,true,
	| false,true,true,false,
	| true,false,true,true,
	| false,false,false,true,
	| false,true,false,true, |];

nPrecs = 37;
pred = [1,1,1,2,2,2,3,3,4,4,5,5,6,7,8,8,9,9,10,10,11,11,11,12,13,13,14,14,15,16,16,17,18,18,19,20,21];
succ = [2,3,4,11,5,8,9,7,6,15,14,16,17,10,20,21,17,18,11,16,19,12,14,13,21,15,18,15,20,18,19,19,20,21,22,22,22];

nUnrels = 95;
unpred = [2,2,2,2,2,2,2,3,3,3,3,4,4,4,4,4,4,4,4,4,4,4,4,5,5,5,5,5,5,5,5,5,6,6,6,6,6,6,6,6,6,6,6,6,6,7,7,7,8,8,8,8,8,8,8,8,8,8,8,9,9,9,9,9,9,9,10,11,11,12,12,12,12,12,13,13,13,13,13,14,14,14,15,15,15,15,15,16,17,17,17,18,19,19,20];
unsucc = [3,4,6,7,9,10,17,4,5,6,8,5,7,8,9,10,11,12,13,14,16,18,21,6,7,8,9,10,11,12,13,17,7,8,9,10,11,12,13,14,15,16,18,20,21,8,9,17,9,10,11,12,13,14,15,16,17,18,19,10,11,12,13,14,15,16,17,16,17,14,16,17,18,19,14,16,17,18,19,16,17,19,16,17,18,19,21,17,18,20,21,19,20,21,21];

USEFUL_RES = [{},
	{1,2,3,4,5,6,7,8,9,10,11,12,13,14,15,16,17,18,19,20,21,22,23,24,25},
	{1,2,3,4,5,6,7,8,9,10,11,12,13,14,15,16,17,18,19,20,21,22,23,24,25},
	{1,2,3,4,5,6,7,8,9,10,11,12,13,14,15,16,17,18,19,20,21,22,23,24,25},
	{1,2,3,4,5,6,7,8,9,10,11,12,13,14,15,16,17,18,19,20,21,22,23,24,25},
	{1,2,3,4,5,6,7,8,9,10,11,12,13,14,15,16,17,18,19,20,21,22,23,24,25},
	{1,2,3,4,5,6,7,8,9,10,11,12,13,14,15,16,17,18,19,20,21,22,23,24,25},
	{1,2,3,4,5,6,7,8,9,10,11,12,13,14,15,16,17,18,19,20,21,22,23,24,25},
	{1,2,3,4,5,6,7,8,9,10,11,12,13,14,15,16,17,18,19,20,21,22,23,24,25},
	{1,2,3,4,5,6,7,8,9,10,11,12,13,14,15,16,17,18,19,20,21,22,23,24,25},
	{1,2,3,4,5,6,7,8,9,10,11,12,13,14,15,16,17,18,19,20,21,22,23,24,25},
	{1,2,3,4,5,6,7,8,9,10,11,12,13,14,15,16,17,18,19,20,21,22,23,24,25},
	{1,2,3,4,5,6,7,8,9,10,11,12,13,14,15,16,17,18,19,20,21,22,23,24,25},
	{1,2,3,4,5,6,7,8,9,10,11,12,13,14,15,16,17,18,19,20,21,22,23,24,25},
	{1,2,3,4,5,6,7,8,9,10,11,12,13,14,15,16,17,18,19,20,21,22,23,24,25},
	{1,2,3,4,5,6,7,8,9,10,11,12,13,14,15,16,17,18,19,20,21,22,23,24,25},
	{1,2,3,4,5,6,7,8,9,10,11,12,13,14,15,16,17,18,19,20,21,22,23,24,25},
	{1,2,3,4,5,6,7,8,9,10,11,12,13,14,15,16,17,18,19,20,21,22,23,24,25},
	{1,2,3,4,5,6,7,8,9,10,11,12,13,14,15,16,17,18,19,20,21,22,23,24,25},
	{1,2,3,4,5,6,7,8,9,10,11,12,13,14,15,16,17,18,19,20,21,22,23,24,25},
	{1,2,3,4,5,6,7,8,9,10,11,12,13,14,15,16,17,18,19,20,21,22,23,24,25},
	{}];

POTENTIAL_ACT = [{2,3,4,5,6,7,8,9,10,11,12,13,14,15,16,17,18,19,20,21},
	{2,3,4,5,6,7,8,9,10,11,12,13,14,15,16,17,18,19,20,21},
	{2,3,4,5,6,7,8,9,10,11,12,13,14,15,16,17,18,19,20,21},
	{2,3,4,5,6,7,8,9,10,11,12,13,14,15,16,17,18,19,20,21},
	{2,3,4,5,6,7,8,9,10,11,12,13,14,15,16,17,18,19,20,21},
	{2,3,4,5,6,7,8,9,10,11,12,13,14,15,16,17,18,19,20,21},
	{2,3,4,5,6,7,8,9,10,11,12,13,14,15,16,17,18,19,20,21},
	{2,3,4,5,6,7,8,9,10,11,12,13,14,15,16,17,18,19,20,21},
	{2,3,4,5,6,7,8,9,10,11,12,13,14,15,16,17,18,19,20,21},
	{2,3,4,5,6,7,8,9,10,11,12,13,14,15,16,17,18,19,20,21},
	{2,3,4,5,6,7,8,9,10,11,12,13,14,15,16,17,18,19,20,21},
	{2,3,4,5,6,7,8,9,10,11,12,13,14,15,16,17,18,19,20,21},
	{2,3,4,5,6,7,8,9,10,11,12,13,14,15,16,17,18,19,20,21},
	{2,3,4,5,6,7,8,9,10,11,12,13,14,15,16,17,18,19,20,21},
	{2,3,4,5,6,7,8,9,10,11,12,13,14,15,16,17,18,19,20,21},
	{2,3,4,5,6,7,8,9,10,11,12,13,14,15,16,17,18,19,20,21},
	{2,3,4,5,6,7,8,9,10,11,12,13,14,15,16,17,18,19,20,21},
	{2,3,4,5,6,7,8,9,10,11,12,13,14,15,16,17,18,19,20,21},
	{2,3,4,5,6,7,8,9,10,11,12,13,14,15,16,17,18,19,20,21},
	{2,3,4,5,6,7,8,9,10,11,12,13,14,15,16,17,18,19,20,21},
	{2,3,4,5,6,7,8,9,10,11,12,13,14,15,16,17,18,19,20,21},
	{2,3,4,5,6,7,8,9,10,11,12,13,14,15,16,17,18,19,20,21},
	{2,3,4,5,6,7,8,9,10,11,12,13,14,15,16,17,18,19,20,21},
	{2,3,4,5,6,7,8,9,10,11,12,13,14,15,16,17,18,19,20,21},
	{2,3,4,5,6,7,8,9,10,11,12,13,14,15,16,17,18,19,20,21}];
